p cnf 102 353
1 -2 -3 0
-1 2 -3 0
1 2 3 0
-1 -2 3 0
5 3 0
5 4 0
-3 -4 -5 0
7 -8 -9 0
-7 8 -9 0
7 8 9 0
-7 -8 9 0
10 -6 0
10 9 0
6 -9 -10 0
-12 -11 -13 0
12 11 -13 0
-12 11 13 0
12 -11 13 0
7 13 -14 0
-7 -13 -14 0
7 -13 14 0
-7 13 14 0
11 14 -15 0
-11 -14 -15 0
11 -14 15 0
-11 14 15 0
10 -15 -16 0
-10 15 -16 0
10 15 16 0
-10 -15 16 0
-18 7 0
-18 11 0
-7 -11 18 0
19 17 0
19 18 0
-17 -18 -19 0
-20 11 -21 0
20 -11 -21 0
-20 -11 21 0
20 11 21 0
-22 19 0
-22 21 0
-19 -21 22 0
-23 16 0
-23 22 0
-16 -22 23 0
24 -23 0
24 23 0
-25 -5 0
-25 24 0
5 -24 25 0
-27 -7 0
-27 20 0
7 -20 27 0
-28 27 0
-28 14 0
-27 -14 28 0
29 3 0
29 -28 0
-3 28 -29 0
13 -6 -30 0
-13 6 -30 0
13 6 30 0
-13 -6 30 0
31 -30 0
31 9 0
30 -9 -31 0
-12 -31 -32 0
12 31 -32 0
-12 31 32 0
12 -31 32 0
-33 29 0
-33 32 0
-29 -32 33 0
-34 26 0
-34 33 0
-26 -33 34 0
20 -33 -35 0
-20 33 -35 0
20 33 35 0
-20 -33 35 0
-36 34 0
-36 -35 0
-34 35 36 0
-38 1 0
-38 -37 0
-1 37 38 0
-39 1 0
-39 17 0
-1 -17 39 0
40 8 0
40 37 0
-8 -37 -40 0
-41 -39 0
-41 40 0
39 -40 41 0
-42 8 0
-42 41 0
-8 -41 42 0
38 -42 -43 0
-38 42 -43 0
38 42 43 0
-38 -42 43 0
-44 -31 0
-44 -18 0
31 18 44 0
44 -40 -45 0
-44 40 -45 0
44 40 45 0
-44 -40 45 0
46 -43 0
46 -45 0
43 45 -46 0
-47 36 0
-47 46 0
-36 -46 47 0
28 -30 -48 0
-28 30 -48 0
28 30 48 0
-28 -30 48 0
49 16 0
49 -11 0
-16 11 -49 0
-48 49 -50 0
48 -49 -50 0
-48 -49 50 0
48 49 50 0
23 20 -51 0
-23 -20 -51 0
23 -20 51 0
-23 20 51 0
-52 50 0
-52 51 0
-50 -51 52 0
53 47 0
53 52 0
-47 -52 -53 0
-54 -7 0
-54 37 0
7 -37 54 0
55 -54 0
55 -2 0
54 2 -55 0
8 7 -56 0
-8 -7 -56 0
8 -7 56 0
-8 7 56 0
-57 55 0
-57 -56 0
-55 56 57 0
-58 53 0
-58 -57 0
-53 57 58 0
59 25 0
59 58 0
-25 -58 -59 0
-60 7 0
-60 6 0
-7 -6 60 0
61 21 0
61 -31 0
-21 31 -61 0
62 13 0
62 28 0
-13 -28 -62 0
61 62 -63 0
-61 -62 -63 0
61 -62 63 0
-61 62 63 0
-64 60 0
-64 -63 0
-60 63 64 0
-20 -18 -65 0
20 18 -65 0
-20 18 65 0
20 -18 65 0
9 40 -66 0
-9 -40 -66 0
9 -40 66 0
-9 40 66 0
-67 1 0
-67 -9 0
-1 9 67 0
68 66 0
68 67 0
-66 -67 -68 0
-70 68 0
-70 -69 0
-68 69 70 0
71 -65 0
71 70 0
65 -70 -71 0
72 -64 0
72 -71 0
64 71 -72 0
-59 -72 -73 0
59 72 -73 0
-59 72 73 0
59 -72 73 0
-19 -54 -74 0
19 54 -74 0
-19 54 74 0
19 -54 74 0
75 -73 0
75 74 0
73 -74 -75 0
8 6 -76 0
-8 -6 -76 0
8 -6 76 0
-8 6 76 0
77 -69 0
77 -76 0
69 76 -77 0
-78 77 0
-78 76 0
-77 -76 78 0
-79 75 0
-79 -78 0
-75 78 79 0
80 -20 -81 0
-80 20 -81 0
80 20 81 0
-80 -20 81 0
-82 81 0
-82 -7 0
-81 7 82 0
82 11 -83 0
-82 -11 -83 0
82 -11 83 0
-82 11 83 0
84 83 0
84 1 0
-83 -1 -84 0
81 -27 -85 0
-81 27 -85 0
81 27 85 0
-81 -27 85 0
-86 -81 0
-86 -85 0
81 85 86 0
87 84 0
87 86 0
-84 -86 -87 0
88 -23 0
88 -29 0
23 29 -88 0
89 -87 0
89 -88 0
87 88 -89 0
-79 89 -90 0
79 -89 -90 0
-79 -89 90 0
79 89 90 0
91 9 0
91 80 0
-9 -80 -91 0
-92 21 0
-92 -41 0
-21 41 92 0
91 92 -93 0
-91 -92 -93 0
91 -92 93 0
-91 92 93 0
13 28 -94 0
-13 -28 -94 0
13 -28 94 0
-13 28 94 0
95 -20 0
95 -76 0
20 76 -95 0
-96 -94 0
-96 95 0
94 -95 96 0
18 -31 -97 0
-18 31 -97 0
18 31 97 0
-18 -31 97 0
98 -83 0
98 -19 0
83 19 -98 0
-99 97 0
-99 -98 0
-97 98 99 0
-100 -96 0
-100 99 0
96 -99 100 0
93 -100 -101 0
-93 100 -101 0
93 100 101 0
-93 -100 101 0
-102 90 0
-102 -101 0
-90 101 102 0
-90 -86 -71 4 27 0
61 -75 0
98 -75 -24 -83 19 -70 0
48 12 -37 -53 56 88 0
-64 -99 0
-53 62 -80 0
36 -8 0
-77 -31 -44 9 101 0
8 -67 -4 -65 0
30 64 -72 0
44 82 -32 -62 -64 -8 0
96 -73 13 37 -12 -87 0
-33 46 -42 0
99 46 22 0
78 83 -66 81 0
57 41 -73 92 0
-4 -9 0
-3 -36 0
44 -48 2 -40 0
-99 -45 -13 0
-1 -33 26 -9 -23 0
-33 85 -25 0
-95 80 0
50 72 -5 30 0
83 -68 -6 33 5 0
-9 -19 -97 0
42 -95 81 96 -37 -40 0
-102 -24 12 0
102 64 -18 -43 0
62 -8 90 93 0
-76 -90 -33 0
21 -78 0
19 -88 42 10 102 62 0
-62 -44 0
-46 35 -21 0
-23 28 63 0
85 -61 -45 50 -76 0
-18 2 79 -92 -66 -82 0
92 6 -36 78 -47 0
-100 49 85 4 20 0
70 -97 53 -73 0
54 4 8 82 100 -22 0
-61 72 -9 0
69 74 0
-37 59 0
-35 -84 18 60 11 0
-4 -46 -82 0
45 -22 86 30 -43 0
30 -20 0
56 83 63 -51 0
69 40 0
-96 93 -86 78 0
-92 -35 -14 -99 0
-90 39 0
36 101 -94 56 45 0
-44 47 -13 -67 97 0
-79 -53 58 -57 0
51 57 -72 -89 0
-50 27 -55 -66 0
102 0
